Version identifier: 22.1.0.0 | 2022-03-09 | 1a383f8ce
CPXPARAM_Threads                                 1
CPXPARAM_MIP_Strategy_VariableSelect             3
CPXPARAM_TimeLimit                               600
Tried aggregator 1 time.
Reduced MIP has 1825 rows, 10500 columns, and 83110 nonzeros.
Reduced MIP has 9000 binaries, 1500 generals, 0 SOSs, and 0 indicators.
Presolve time = 0.04 sec. (32.11 ticks)
Found incumbent of value 5.990510 after 0.11 sec. (80.77 ticks)
Tried aggregator 1 time.
Detecting symmetries...
Reduced MIP has 1825 rows, 10500 columns, and 83110 nonzeros.
Reduced MIP has 9000 binaries, 1500 generals, 0 SOSs, and 0 indicators.
Presolve time = 0.05 sec. (39.71 ticks)
Probing time = 0.01 sec. (4.54 ticks)
Clique table members: 304.
MIP emphasis: balance optimality and feasibility.
MIP search method: dynamic search.
Parallel mode: none, using 1 thread.
Root relaxation solution time = 1.60 sec. (1732.69 ticks)

        Nodes                                         Cuts/
   Node  Left     Objective  IInf  Best Integer    Best Bound    ItCnt     Gap

*     0+    0                            5.9905        0.0000           100.00%
      0     0        0.0000  1561        5.9905        0.0000     5468  100.00%
      0     0        0.0000   750        5.9905   ZeroHalf: 2     6020  100.00%
      0     0        0.0000  1457        5.9905     Cuts: 110    12889  100.00%
      0     0        0.0000   733        5.9905   ZeroHalf: 1    12997  100.00%
*     0+    0                            1.4811        0.0000           100.00%
      0     0        0.0000  1429        1.4811  ZeroHalf: 63    20365  100.00%
*     0+    0                            0.1239        0.0000           100.00%
*     0+    0                            0.0607        0.0000           100.00%
*     0+    0                            0.0513        0.0000           100.00%
*     0+    0                            0.0433        0.0000           100.00%
*     0+    0                            0.0406        0.0000           100.00%
*     0+    0                            0.0321        0.0000           100.00%
      0     0  -1.00000e+75     0        0.0321        0.0000    20365  100.00%
Detecting symmetries...
      0     2        0.0000   459        0.0321        0.0000    20365  100.00%
Elapsed time = 44.69 sec. (49251.66 ticks, tree = 0.01 MB, solutions = 8)
      1     3        0.0000   486        0.0321        0.0000    28651  100.00%
      2     4        0.0000   514        0.0321        0.0000    32246  100.00%
      3     5        0.0000   433        0.0321        0.0000    35926  100.00%
      4     6        0.0000   408        0.0321        0.0000    38778  100.00%
      5     7        0.0000   426        0.0321        0.0000    46972  100.00%
      6     8       -0.0000  1667        0.0321        0.0000    52465  100.00%
      7     9        0.0000   623        0.0321        0.0000    59698  100.00%
      8    10        0.0000   416        0.0321        0.0000    61295  100.00%
      9    11        0.0000   570        0.0321        0.0000    66834  100.00%
     10    12        0.0000  1519        0.0321        0.0000    67000  100.00%
Elapsed time = 63.38 sec. (69390.71 ticks, tree = 0.12 MB, solutions = 8)
     12    14       -0.0000   553        0.0321        0.0000    83216  100.00%
     14    16        0.0000   499        0.0321        0.0000    85785  100.00%
     15    17        0.0000   434        0.0321        0.0000    96634  100.00%
     16    18       -0.0000   451        0.0321        0.0000   100383  100.00%
     18    20        0.0000   531        0.0321        0.0000   108599  100.00%
     19    21        0.0000   512        0.0321        0.0000   112979  100.00%
     20    22        0.0000   517        0.0321        0.0000   113915  100.00%
     21    23        0.0000   659        0.0321        0.0000   128428  100.00%
     22    24        0.0000   462        0.0321        0.0000   131860  100.00%
     23    25        0.0000   428        0.0321        0.0000   136683  100.00%
Elapsed time = 86.93 sec. (93887.39 ticks, tree = 0.28 MB, solutions = 8)
     24    26       -0.0000   546        0.0321        0.0000   144446  100.00%
     26    28        0.0000   463        0.0321        0.0000   148027  100.00%
     27    29        0.0000   424        0.0321        0.0000   151529  100.00%
     29    31        0.0000   533        0.0321        0.0000   154669  100.00%
     31    33        0.0000   598        0.0321        0.0000   157314  100.00%
     32    34       -0.0000   421        0.0321        0.0000   160716  100.00%
     33    35        0.0000   417        0.0321        0.0000   164675  100.00%
     35    37        0.0000   459        0.0321        0.0000   166767  100.00%
     37    39       -0.0000   435        0.0321        0.0000   170210  100.00%
     39    41        0.0000   603        0.0321        0.0000   173293  100.00%
Elapsed time = 106.01 sec. (114397.14 ticks, tree = 0.48 MB, solutions = 8)
     40    42       -0.0000   512        0.0321        0.0000   175380  100.00%
     41    43        0.0000   414        0.0321        0.0000   180190  100.00%
     42    44       -0.0000   454        0.0321        0.0000   182916  100.00%
     43    45       -0.0000   493        0.0321        0.0000   184838  100.00%
     45    47        0.0000   471        0.0321        0.0000   187032  100.00%
     47    49        0.0000   597        0.0321        0.0000   190530  100.00%
     48    50        0.0000   519        0.0321        0.0000   194302  100.00%
     50    52        0.0000   496        0.0321        0.0000   198425  100.00%
     51    53       -0.0000   465        0.0321        0.0000   199823  100.00%
     53    55       -0.0000   611        0.0321        0.0000   204360  100.00%
Elapsed time = 131.64 sec. (141262.23 ticks, tree = 0.68 MB, solutions = 8)
     55    57        0.0000   484        0.0321        0.0000   205276  100.00%
     56    58       -0.0000   482        0.0321        0.0000   208384  100.00%
     58    60       -0.0000   457        0.0321        0.0000   209161  100.00%
     60    62        0.0000   575        0.0321        0.0000   209712  100.00%
     61    63        0.0000   414        0.0321        0.0000   211869  100.00%
     63    65       -0.0000   410        0.0321        0.0000   212963  100.00%
     64    66        0.0000   418        0.0321        0.0000   215547  100.00%
     66    68        0.0000   419        0.0321        0.0000   217247  100.00%
     67    69       -0.0000   405        0.0321        0.0000   220984  100.00%
     69    71        0.0000   387        0.0321        0.0000   223804  100.00%
Elapsed time = 145.17 sec. (155512.65 ticks, tree = 0.96 MB, solutions = 8)
     71    73       -0.0000   389        0.0321        0.0000   226759  100.00%
     73    75        0.0000   388        0.0321        0.0000   227430  100.00%
     74    76        0.0000   404        0.0321        0.0000   229988  100.00%
     76    78        0.0000   402        0.0321        0.0000   231103  100.00%
     77    79       -0.0000   532        0.0321        0.0000   234576  100.00%
     79    81       -0.0000   469        0.0321        0.0000   238039  100.00%
     80    82        0.0000   393        0.0321        0.0000   241127  100.00%
     82    84       -0.0000   378        0.0321        0.0000   244742  100.00%
     83    85       -0.0000   363        0.0321        0.0000   246989  100.00%
     84    86        0.0000   356        0.0321        0.0000   253450  100.00%
Elapsed time = 160.90 sec. (172204.13 ticks, tree = 1.23 MB, solutions = 8)
     85    87        0.0000   393        0.0321        0.0000   258089  100.00%
     86    88        0.0000   524        0.0321        0.0000   262616  100.00%
     87    89        0.0000   370        0.0321        0.0000   264669  100.00%
     89    91       -0.0000   457        0.0321        0.0000   270484  100.00%
     91    93       -0.0000   391        0.0321        0.0000   271767  100.00%
     92    94        0.0000   514        0.0321        0.0000   275511  100.00%
     94    96       -0.0000   494        0.0321        0.0000   279844  100.00%
     95    97       -0.0000   337        0.0321        0.0000   283753  100.00%
     97    99       -0.0000   559        0.0321        0.0000   288563  100.00%
     99   101       -0.0000   343        0.0321        0.0000   290022  100.00%
Elapsed time = 179.03 sec. (191302.97 ticks, tree = 1.41 MB, solutions = 8)
    100   102        0.0000   521        0.0321        0.0000   293095  100.00%
    102   104        0.0000   501        0.0321        0.0000   295821  100.00%
    104   106       -0.0000   565        0.0321        0.0000   299529  100.00%
    105   107       -0.0000   340        0.0321        0.0000   301076  100.00%
    107   109       -0.0000   358        0.0321        0.0000   304285  100.00%
    108   110       -0.0000   448        0.0321        0.0000   307189  100.00%
    110   112       -0.0000   420        0.0321        0.0000   311556  100.00%
    111   113       -0.0000   530        0.0321        0.0000   315008  100.00%
    112   114        0.0000   448        0.0321        0.0000   317745  100.00%
    113   115       -0.0000   640        0.0321        0.0000   320709  100.00%
Elapsed time = 194.75 sec. (207822.97 ticks, tree = 1.64 MB, solutions = 8)
    114   116        0.0000   536        0.0321        0.0000   323106  100.00%
    115   117        0.0000   483        0.0321        0.0000   326366  100.00%
    116   118        0.0000   557        0.0321        0.0000   332099  100.00%
    117   119        0.0000   748        0.0321        0.0000   337679  100.00%
    118   120        0.0000   556        0.0321        0.0000   339809  100.00%
    119   121        0.0000   633        0.0321        0.0000   342616  100.00%
    120   122       -0.0000   564        0.0321        0.0000   344282  100.00%
    122   124       -0.0000   551        0.0321        0.0000   345768  100.00%
    123   125        0.0000   643        0.0321        0.0000   350774  100.00%
    124   126       -0.0000   667        0.0321        0.0000   353989  100.00%
Elapsed time = 209.95 sec. (223823.22 ticks, tree = 1.80 MB, solutions = 8)
    125   127        0.0000   546        0.0321        0.0000   357731  100.00%
    127   129       -0.0000   552        0.0321        0.0000   358323  100.00%
    128   130        0.0000   669        0.0321        0.0000   363429  100.00%
    129   131        0.0000   585        0.0321        0.0000   366466  100.00%
    130   132        0.0000   640        0.0321        0.0000   370959  100.00%
    131   133       -0.0000   577        0.0321        0.0000   375176  100.00%
    133   135        0.0000   698        0.0321        0.0000   380167  100.00%
    135   137       -0.0000   787        0.0321        0.0000   384088  100.00%
    137   139       -0.0000   597        0.0321        0.0000   385670  100.00%
    140   142        0.0000   621        0.0321        0.0000   391751  100.00%
Elapsed time = 232.15 sec. (246560.73 ticks, tree = 2.11 MB, solutions = 8)
    144   146        0.0000   675        0.0321        0.0000   399663  100.00%
    149   151        0.0000   704        0.0321        0.0000   405006  100.00%
    153   155       -0.0000   764        0.0321        0.0000   413181  100.00%
    158   160       -0.0000   477        0.0321        0.0000   422236  100.00%
    163   165        0.0010   789        0.0321        0.0000   429338  100.00%
    167   169        0.0000   543        0.0321        0.0000   439288  100.00%
    170   172        0.0010   507        0.0321        0.0000   443825  100.00%
    174   176       -0.0000   629        0.0321        0.0000   457165  100.00%
    177   179        0.0000   718        0.0321        0.0000   468079  100.00%
    180   182       -0.0000   578        0.0321        0.0000   475757  100.00%
Elapsed time = 281.75 sec. (297141.90 ticks, tree = 2.80 MB, solutions = 8)
    183   185        0.0000   431        0.0321        0.0000   487277  100.00%
    186   188        0.0010   544        0.0321        0.0000   500154  100.00%
    192   194       -0.0000   373        0.0321        0.0000   507508  100.00%
    194   196        0.0000   611        0.0321        0.0000   518361  100.00%
    197   199       -0.0000   466        0.0321        0.0000   529235  100.00%
    200   202        0.0000   464        0.0321        0.0000   534859  100.00%
    203   205        0.0000   505        0.0321        0.0000   544586  100.00%
    208   210       -0.0000   402        0.0321        0.0000   553514  100.00%
    213   215        0.0010   423        0.0321        0.0000   563482  100.00%
    218   220       -0.0000   517        0.0321        0.0000   572990  100.00%
Elapsed time = 323.68 sec. (340075.00 ticks, tree = 3.41 MB, solutions = 8)
    220   222       -0.0000   384        0.0321        0.0000   585226  100.00%
    224   226        0.0010   381        0.0321        0.0000   592943  100.00%
    227   229        0.0010   404        0.0321        0.0000   603726  100.00%
    229   231        0.0010   389        0.0321        0.0000   617605  100.00%
    232   234        0.0010   309        0.0321        0.0000   628974  100.00%
    235   237        0.0010   349        0.0321        0.0000   638949  100.00%
    239   241        0.0010   363        0.0321        0.0000   649372  100.00%
    241   243        0.0019   560        0.0321        0.0000   659445  100.00%
    245   247        0.0010   332        0.0321        0.0000   670991  100.00%
    250   252        0.0010   345        0.0321        0.0000   679151  100.00%
Elapsed time = 364.96 sec. (382780.86 ticks, tree = 3.96 MB, solutions = 8)
    254   256        0.0010   675        0.0321        0.0000   691464  100.00%
    257   259        0.0010   446        0.0321        0.0000   703631  100.00%
    261   263        0.0010   411        0.0321        0.0000   710897  100.00%
    264   266        0.0010   463        0.0321        0.0000   725163  100.00%
    267   269        0.0016   531        0.0321        0.0000   739252  100.00%
    270   272        0.0011   685        0.0321        0.0000   750839  100.00%
    275   277        0.0012   645        0.0321        0.0000   761138  100.00%
    284   286        0.0012   623        0.0321        0.0000   762933  100.00%
    290   292        0.0015   864        0.0321        0.0000   769048  100.00%
    298   300        0.0015   775        0.0321        0.0000   771544  100.00%
Elapsed time = 405.42 sec. (425238.15 ticks, tree = 4.79 MB, solutions = 8)
    304   306        0.0018   739        0.0321        0.0000   777169  100.00%
    310   312        0.0018   761        0.0321        0.0000   782512  100.00%
    316   318        0.0047   533        0.0321        0.0000   790662  100.00%
    323   325        0.0020   773        0.0321        0.0000   794556  100.00%
    329   331        0.0020   810        0.0321        0.0000   799968  100.00%
    336   338        0.0021   751        0.0321        0.0000   804488  100.00%
    341   343        0.0021   771        0.0321        0.0000   808658  100.00%
    347   349        0.0040   668        0.0321        0.0000   817232  100.00%
    354   356        0.0027   704        0.0321        0.0000   821679  100.00%
    361   363        0.0029   903        0.0321        0.0000   825819  100.00%
Elapsed time = 443.28 sec. (466211.73 ticks, tree = 5.05 MB, solutions = 8)
    369   371        0.0042   767        0.0321        0.0000   829866  100.00%
    378   380        0.0029   808        0.0321        0.0000   833661  100.00%
    385   387        0.0040   757        0.0321        0.0000   837985  100.00%
    392   394        0.0051   727        0.0321        0.0000   845511  100.00%
    400   402        0.0058   820        0.0321        0.0000   848140  100.00%
    408   410        0.0065   776        0.0321        0.0000   850986  100.00%
    416   418        0.0065   727        0.0321        0.0000   853882  100.00%
    423   425        0.0075   868        0.0321        0.0000   858179  100.00%
    431   433        0.0091   535        0.0321        0.0000   861383  100.00%
    437   439        0.0097   660        0.0321        0.0000   868084  100.00%
Elapsed time = 481.69 sec. (507887.77 ticks, tree = 5.36 MB, solutions = 8)
    445   447        0.0104   594        0.0321        0.0000   872464  100.00%
    449   451        0.0122   414        0.0321        0.0000   883723  100.00%
    455   457        0.0123   531        0.0321        0.0000   897174  100.00%
    460   462        0.0122   323        0.0321        0.0000   911099  100.00%
    463   465        0.0129   554        0.0321        0.0000   924553  100.00%
    469   471        0.0122   367        0.0321        0.0000   933728  100.00%
    474   476        0.0122   376        0.0321        0.0000   944034  100.00%
    478   480        0.0122   478        0.0321        0.0000   959698  100.00%
    483   485        0.0126   492        0.0321        0.0000   967020  100.00%
    491   493        0.0122   449        0.0321        0.0000   972151  100.00%
Elapsed time = 523.21 sec. (550139.25 ticks, tree = 5.57 MB, solutions = 8)
    497   499        0.0137   392        0.0321        0.0000   980655  100.00%
    502   504        0.0137   300        0.0321        0.0000   991058  100.00%
    506   508        0.0137   501        0.0321        0.0000  1002013  100.00%
    510   512        0.0148   507        0.0321        0.0000  1011737  100.00%
    513   515        0.0137   433        0.0321        0.0000  1026831  100.00%
    516   518        0.0137   444        0.0321        0.0000  1041026  100.00%
    520   522        0.0137   419        0.0321        0.0000  1054010  100.00%
    524   526        0.0143   513        0.0321        0.0000  1064763  100.00%
    526   528        0.0000   698        0.0321        0.0000  1074647  100.00%
*   527+  527                            0.0309        0.0000           100.00%

Zero-half cuts applied:  25

Root node processing (before b&c):
  Real time             =   44.65 sec. (49220.04 ticks)
Sequential b&c:
  Real time             =  555.36 sec. (573440.00 ticks)
                          ------------
Total (root+branch&cut) =  600.01 sec. (622660.03 ticks)
Violation-free sequence bound:	80
Unscheduled:	220
Status:	Feasible
Time:	600.01
Sequence:
	18
	4
	6
	24
	21
	9
	15
	16
	5
	10
	15
	20
	5
	17
	6
	23
	2
	9
	1
	16
	5
	10
	15
	20
	5
	17
	13
	19
	18
	4
	13
	8
	14
	17
	11
	19
	0
	4
	11
	8
	0
	7
	11
	15
	9
	21
	16
	1
	9
	2
	20
	15
	9
	5
	16
	6
	12
	17
	13
	3
	0
	4
	1
	16
	21
	9
	15
	11
	7
	2
	23
	1
	17
	6
	6
	16
	17
	18
	1
	20
	22
	10
	15
	11
	0
	4
	6
	24
	2
	9
	1
	16
	5
	10
	15
	20
	22
	10
	1
	24
	21
	10
	15
	23
	2
	9
	6
	24
	21
	9
	15
	16
	5
	10
	15
	23
	2
	9
	6
	24
	21
	9
	15
	20
	21
	17
	11
	3
	0
	7
	13
	8
	12
	17
	13
	19
	18
	17
	11
	19
	0
	4
	11
	15
	10
	21
	24
	1
	10
	2
	23
	15
	9
	21
	16
	1
	4
	0
	1
	16
	22
	4
	13
	8
	21
	9
	15
	20
	2
	9
	1
	24
	21
	10
	15
	23
	22
	10
	6
	24
	5
	18
	19
	13
	17
	12
	15
	19
	14
	17
	11
	3
	0
	7
	11
	8
	14
	17
	13
	3
	0
	4
	13
	8
	12
	7
	0
	8
	12
	3
	0
	19
	12
	8
	14
	3
	0
	3
	18
	19
	18
	19
	18
	3
	14
	8
	14
	3
	18
	19
	14
	8
	12
	3
	0
	19
	12
	8
	18
	19
	0
	3
	12
	8
	13
	7
	18
	19
	11
	17
	14
	8
	13
	4
	0
	1
	20
	22
	9
	6
	24
	21
	9
	15
	20
	22
	10
	1
	24
	21
	10
	1
	3
	0
	4
	15
	20
	21
	24
	21
	20
	18
	23
	4
	20
	2
	23
	18
	11
	2
	20
	5
	24
	21
	23
	2
	11
	17
	13
	4
Violation-free sequence:
	18
	4
	6
	24
	21
	9
	15
	16
	5
	10
	15
	20
	5
	17
	6
	23
	2
	9
	1
	16
	5
	10
	15
	20
	5
	17
	13
	19
	18
	4
	13
	8
	14
	17
	11
	19
	0
	4
	11
	8
	0
	7
	11
	15
	9
	21
	16
	1
	9
	2
	20
	15
	9
	5
	16
	6
	12
	17
	13
	3
	0
	4
	1
	16
	21
	9
	15
	11
	7
	2
	23
	1
	17
	6
	6
	16
	17
	18
	1
	20
